c
c start with comments
c
p cnf 23 15
5 -13 0
25 -5 16 0
14 -16 0
-20 12 8 0
-25 13 0
15 -6 12 0
-5 4 -20 -10 -20 0
-21 -21 0
-24 -17 0
12 -5 17 2 0
9 21 21 0
-19 -5 26 0
10 -23 -23 0
20 1 18 0
3 19 0